(declare-fun temp70_1 () (_ BitVec 64))
(declare-fun var154683 () (_ BitVec 64))
(declare-fun k!0 () Bool)
(declare-fun ARGNAME_source_NAMEEND_LEN () (_ BitVec 64))
(declare-fun ARGNAME_destination_NAMEEND_LEN () (_ BitVec 64))
(declare-fun temp70_3 () (_ BitVec 64))
(declare-fun temp70_2 () (_ BitVec 64))
(declare-fun temp70_4 () (_ BitVec 64))
(declare-fun var266826 () (_ BitVec 64))
(declare-fun var266828 () (_ BitVec 64))
(declare-fun temp70_6 () (_ BitVec 64))
(declare-fun temp70_5 () (_ BitVec 64))
(declare-fun temp70_7 () (_ BitVec 64))
(declare-fun var594506 () (_ BitVec 64))
(declare-fun var594508 () (_ BitVec 64))
(declare-fun temp70_9 () (_ BitVec 64))
(declare-fun temp70_8 () (_ BitVec 64))
(declare-fun temp70_10 () (_ BitVec 64))
(declare-fun var1053642 () (_ BitVec 64))
(declare-fun temp70_12 () (_ BitVec 64))
(declare-fun temp70_11 () (_ BitVec 64))
(declare-fun temp70_13 () (_ BitVec 64))
(declare-fun var1774538 () (_ BitVec 64))
(declare-fun temp70_14 () (_ BitVec 64))
(declare-fun var2429514 () (_ BitVec 64))
(declare-fun temp70_15 () (_ BitVec 64))
(declare-fun var3871306 () (_ BitVec 64))
(declare-fun temp70_16 () (_ BitVec 64))
(declare-fun ARGNAME_input_NAMEEND_DIM () (_ BitVec 64))
(declare-fun var154805 () (_ BitVec 64))
(declare-fun temp70_17 () (_ BitVec 64))
(declare-fun temp70_19 () (_ BitVec 64))
(declare-fun temp70_18 () (_ BitVec 64))
(declare-fun temp70_20 () (_ BitVec 64))
(declare-fun var5247562 () (_ BitVec 64))
(declare-fun var5247564 () (_ BitVec 64))
(declare-fun temp70_22 () (_ BitVec 64))
(declare-fun temp70_21 () (_ BitVec 64))
(declare-fun temp70_23 () (_ BitVec 64))
(declare-fun var5575242 () (_ BitVec 64))
(declare-fun var5575244 () (_ BitVec 64))
(declare-fun temp70_25 () (_ BitVec 64))
(declare-fun temp70_24 () (_ BitVec 64))
(declare-fun temp70_26 () (_ BitVec 64))
(declare-fun var6427210 () (_ BitVec 64))
(declare-fun var6427212 () (_ BitVec 64))
(declare-fun temp70_28 () (_ BitVec 64))
(declare-fun temp70_27 () (_ BitVec 64))
(declare-fun var7803845 () (_ BitVec 64))
(declare-fun temp70_29 () (_ BitVec 64))
(declare-fun temp70_30 () (_ BitVec 64))
(declare-fun var7869386 () (_ BitVec 64))
(declare-fun temp70_32 () (_ BitVec 64))
(declare-fun temp70_31 () (_ BitVec 64))
(declare-fun temp70_34 () (_ BitVec 64))
(declare-fun temp70_33 () (_ BitVec 64))
(declare-fun var154934 () (_ BitVec 64))
(declare-fun var8784761 () (_ BitVec 64))
(declare-fun temp70_36 () (_ BitVec 64))
(declare-fun temp70_35 () (_ BitVec 64))
(declare-fun var8850753 () (_ BitVec 64))
(declare-fun var8850754 () (_ BitVec 64))
(declare-fun temp70_37 () (_ BitVec 64))
(declare-fun temp70_38 () (_ BitVec 64))
(declare-fun var8916295 () (_ BitVec 64))
(declare-fun var8981842 () (_ BitVec 64))
(assert (= var154683
   (ite (= ARGNAME_source_NAMEEND_LEN ARGNAME_destination_NAMEEND_LEN)
        #x0000000000000001
        #x0000000000000000)))
(assert (= temp70_1 #x0000000000000001))
(assert (= var154683 temp70_1))
(assert (= temp70_3 #x0000000000000000))
(assert (= temp70_2 temp70_3))
(assert (= temp70_4 #x0000000000000005))
(assert (= var266826 temp70_4))
(assert (= var266828 var266826))
(assert (= temp70_6 #x0000000000000000))
(assert (= temp70_5 temp70_6))
(assert (= temp70_7 #x0000000000000005))
(assert (= var594506 temp70_7))
(assert (= var594508 var594506))
(assert (= temp70_9 #x0000000000000000))
(assert (= temp70_8 temp70_9))
(assert (= temp70_10 #x0000000000000000))
(assert (= var1053642 temp70_10))
(assert (= temp70_12 #x0000000000000000))
(assert (= temp70_11 temp70_12))
(assert (= temp70_13 #x0000000000000000))
(assert (= var1774538 temp70_13))
(assert (= temp70_14 #x0000000000000005))
(assert (= var2429514 temp70_14))
(assert (= temp70_15 #x0000000000000005))
(assert (= var3871306 temp70_15))
(assert (= temp70_16 #x0000000000000000))
(assert (= var154805
   (ite (= ARGNAME_input_NAMEEND_DIM temp70_16)
        #x0000000000000001
        #x0000000000000000)))
(assert (= temp70_17 #x0000000000000000))
(assert (= var154805 temp70_17))
(assert (= temp70_19 #x0000000000000000))
(assert (= temp70_18 temp70_19))
(assert (= temp70_20 #x0000000000000005))
(assert (= var5247562 temp70_20))
(assert (= var5247564 var5247562))
(assert (= temp70_22 #x0000000000000000))
(assert (= temp70_21 temp70_22))
(assert (= temp70_23 #x0000000000000005))
(assert (= var5575242 temp70_23))
(assert (= var5575244 var5575242))
(assert (= temp70_25 #x0000000000000000))
(assert (= temp70_24 temp70_25))
(assert (= temp70_26 #x0000000000000005))
(assert (= var6427210 temp70_26))
(assert (= var6427212 var6427210))
(assert (= temp70_28 #x0000000000000000))
(assert (= temp70_27 temp70_28))
(assert (= var7803845
   (ite (bvslt temp70_27 ARGNAME_source_NAMEEND_LEN)
        #x0000000000000001
        #x0000000000000000)))
(assert (= temp70_29
   (ite (= var7803845 #x0000000000000001) ARGNAME_source_NAMEEND_LEN temp70_27)))
(assert (= temp70_30 #x0000000000000000))
(assert (= var7869386 temp70_30))
(assert (= temp70_32 #xffffffffffffffff))
(assert (= temp70_31 temp70_32))
(assert (= temp70_34 #xffffffffffffffff))
(assert (= temp70_33 temp70_34))
(assert (= var154934 (bvsub ARGNAME_input_NAMEEND_DIM ARGNAME_source_NAMEEND_LEN)))
(assert (= var8784761 var154934))
(assert (= temp70_36 #x0000000000000000))
(assert (= temp70_35 temp70_36))
(assert (= var8850753 var8784761))
(assert (= var8850754
   (ite (bvslt temp70_35 var8850753) #x0000000000000001 #x0000000000000000)))
(assert (= temp70_37 (ite (= var8850754 #x0000000000000001) var8784761 temp70_35)))
(assert (= temp70_38 #x0000000000000000))
(assert (= var8916295 temp70_38))
(assert (= var8981842 var8916295))
(model-add temp70_1 () (_ BitVec 64) #x0000000000000001)
(model-add var154683 () (_ BitVec 64) #x0000000000000001)
(model-del k!0)
(model-add ARGNAME_source_NAMEEND_LEN
           ()
           (_ BitVec 64)
           (ite k!0
                ARGNAME_destination_NAMEEND_LEN
                (bvnot ARGNAME_destination_NAMEEND_LEN)))



